NAME: kroA100
DIMENSION: 17
EDGE_WEIGHT_TYPE: EUC_2D
NODE_COORD_SECTION
1 1380 939
2 2848 96
3 3510 1671
4 457 334
5 3888 666
6 984 965
7 2721 1482
8 1286 525
9 2716 1432
10 738 1325
11 1251 1832
12 2728 1698
13 3815 169
14 3683 1533
15 1247 1945
16 123 862
17 1234 1946
ACCEPTED_PROBABILITIES
0.0
0.35
0.08
0.99
0.69
0.41
0.65
0.02
0.74
0.54
0.08
0.19
0.8
0.01
0.79
0.84
0.4
OUTSOURCING_COSTS
0.0
127.46
150.97
139.51
99.34
107.25
45.01
56.95
92.74
16.33
154.96
70.85
13.67
28.89
133.26
110.38
71.31
